c 2 no_asm
c 3 no_8x8dct
c 4 no_cabac
c 5 no_deblock
c 6 no_fast_pskip
c 7 no_mbtree
c 8 no_mixed_refs
c 9 no_weightb
c 10 rc_lookahead
c 11 rc_lookahead_20
c 12 rc_lookahead_40
c 13 rc_lookahead_60
c 14 ref
c 15 ref_1
c 16 ref_5
c 17 ref_9
p cnf 16 11
2 0
10 0
11 12 13 0
-12 -11 0
-13 -11 0
-13 -12 0
14 0
15 16 17 0
-16 -15 0
-17 -15 0
-17 -16 0